NAME:  br5
TYPE: ATSP
COMMENT: 5 city problem (Repetto)
DIMENSION:  5
EDGE_WEIGHT_TYPE: EXPLICIT
EDGE_WEIGHT_FORMAT: FULL_MATRIX 
EDGE_WEIGHT_SECTION
 9999   45    5   30   25
  28 9999   35   12   50
  40   33 9999   22    8
   7   15   29 9999   38
  42    3   18   26 9999
EOF
